p tw 49 56
1 2
2 13
3 4
4 5
4 6
5 43
6 7
7 8
8 9
8 10
9 10
9 17
10 11
11 12
12 14
13 24
14 15
15 16
16 32
17 18
18 19
19 20
19 30
20 21
21 22
21 30
22 23
23 25
24 35
25 26
26 27
27 28
28 29
29 32
30 31
31 43
32 33
33 34
34 36
35 45
36 37
36 38
37 38
37 47
38 39
39 40
40 41
41 42
41 35
42 43
43 44
45 46
46 47
47 48
48 49
49 3
